 vasp.5.2.12 26May11 complex
 executed on             LinuxIFC date 2015.12.27  23:18:51

 INCAR:
 POTCAR:    PAW_PBE Si 05Jan2001
 POTCAR:    PAW_PBE Si 05Jan2001
   VRHFIN =Si: s2p2

   TITEL  = PAW_PBE Si 05Jan2001
   POMASS =   28.085; ZVAL   =    4.000    mass and valenz
   ENMAX  =  245.345; ENMIN  =  184.009 eV

  PAW_PBE Si 05Jan2001                  :

 POSCAR: system Si
  positions in cartesian coordinates
 exchange correlation table for  LEXCH =        8
   RHO(1)=    0.500       N(1)  =     2000
   RHO(2)=  100.500       N(2)  =     4000

 ion  position               nearest neighbor table
   1  0.000  0.000  0.000-   2 2.35   2 2.35   2 2.35   2 2.35
   2  0.250  0.250  0.250-   1 2.35   1 2.35   1 2.35   1 2.35

  LATTYP: Found a face centered cubic cell.
 ALAT       =     5.4300000000

  Lattice vectors:

 A1 = (   2.7150000000,   2.7150000000,   0.0000000000)
 A2 = (   0.0000000000,   2.7150000000,   2.7150000000)
 A3 = (   2.7150000000,   0.0000000000,   2.7150000000)
 Subroutine PRICEL returns:
 Original cell was already a primitive cell.

Analysis of symmetry for initial positions (statically):

 Routine SETGRP: Setting up the symmetry group for a
 face centered cubic supercell.

 Subroutine GETGRP returns: Found 48 space group operations
 (whereof 24 operations were pure point group operations)
 out of a pool of 48 trial point group operations.

The static configuration has the point symmetry T_d .
 The point group associated with its full space group is O_h .

Analysis of symmetry for dynamics (positions and initial velocities):

 Subroutine DYNSYM returns: Found 48 space group operations
 (whereof 24 operations were pure point group operations)
 out of a pool of 48 trial space group operations
 (whereof 24 operations were pure point group operations)
 and found also     1 'primitive' translations

The dynamic configuration has the point symmetry T_d .
 The point group associated with its full space group is O_h .

 KPOINTS: k-points for bandstructure L-G-X-U K-G
  interpolating k-points between supplied coordinates
  k-points in reciprocal lattice

 I would recommend the setting:
   dimension x,y,z NGX =    15 NGY =   15 NGZ =   15
 SYSTEM =  fcc Si
 POSCAR =  system Si

 Startparameter for this run:
   NWRITE =      2    write-flag & timer
   PREC   = normal    normal or accurate (medium, high low for compatibility)
   ISTART =      1    job   : 0-new  1-cont  2-samecut
   ICHARG =     11    charge: 1-file 2-atom 10-const
   ISPIN  =      1    spin polarized calculation?
   LNONCOLLINEAR =      F non collinear calculations
   LSORBIT =      F    spin-orbit coupling
   INIWAV =      1    electr: 0-lowe 1-rand  2-diag
   LASPH  =      F    aspherical Exc in radial PAW
   METAGGA=      F    non-selfconsistent MetaGGA calc.

 Electronic Relaxation 1
   ENCUT  =  240.0 eV  17.64 Ry    4.20 a.u.   4.85  4.85  4.85*2*pi/ulx,y,z
   ENINI  =  240.0     initial cutoff
   ENAUG  =  322.1 eV  augmentation charge cutoff
   NELM   =     60;   NELMIN=  2; NELMDL=  0     # of ELM steps
   EDIFF  = 0.1E-03   stopping-criterion for ELM
   LREAL  =      F    real-space projection
   LCOMPAT=      F    compatible to vasp.4.4
   GGA_COMPAT  = T    GGA compatible to vasp.4.4-vasp.4.6
   LMAXPAW     = -100 max onsite density
   LMAXMIX     =    2 max onsite mixed and CHGCAR
   VOSKOWN=      0    Vosko Wilk Nusair interpolation
   ROPT   =    0.00000
 Ionic relaxation
   EDIFFG = 0.1E-02   stopping-criterion for IOM
   NSW    =      0    number of steps for IOM
   NBLOCK =      1;   KBLOCK =      1    inner block; outer block
   IBRION =     -1    ionic relax: 0-MD 1-quasi-New 2-CG
   NFREE  =      0    steps in history (QN), initial steepest desc. (CG)
   ISIF   =      2    stress and relaxation
   IWAVPR =     10    prediction:  0-non 1-charg 2-wave 3-comb
   ISYM   =      2    0-nonsym 1-usesym 2-fastsym
   LCORR  =      T    Harris-Foulkes like correction to forces

   POTIM  = 0.5000    time-step for ionic-motion
   TEIN   =    0.0    initial temperature
   TEBEG  =    0.0;   TEEND  =   0.0 temperature during run
   SMASS  =  -3.00    Nose mass-parameter (am)
   estimated Nose-frequenzy (Omega)   =  0.10E-29 period in steps =****** mass=  -0.337E-27a.u.
   SCALEE = 1.0000    scale energy and forces
   NPACO  =    256;   APACO  = 16.0  distance and # of slots for P.C.
   PSTRESS=    0.0 pullay stress

  Mass of Ions in am
   POMASS =  28.09
  Ionic Valenz
   ZVAL   =   4.00
  Atomic Wigner-Seitz radii
  virtual crystal weights
   VCA    =   1.00
   NELECT =       8.0000    total number of electrons
   NUPDOWN=      -1.0000    fix difference up-down

 DOS related values:
   EMIN   =  10.00;   EMAX   =-10.00  energy-range for DOS
   EFERMI =   0.00
   ISMEAR =     0;   SIGMA  =   0.10  broadening in eV -4-tet -1-fermi 0-gaus

 Electronic relaxation 2 (details)
   IALGO  =     38    algorithm
   LDIAG  =      T    sub-space diagonalisation (order eigenvalues)
   LSUBROT=      T    optimize rotation matrix (better conditioning)
   TURBO    =      0    0=normal 1=particle mesh
   IRESTART =      0    0=no restart 2=restart with 2 vectors
   NREBOOT  =      0    no. of reboots
   NMIN     =      0    reboot dimension
   EREF     =   0.00    reference energy to select bands
   IMIX   =      4    mixing-type and parameters
     AMIX     =   0.40;   BMIX     =  1.00
     AMIX_MAG =   1.60;   BMIX_MAG =  1.00
     AMIN     =   0.10
     WC   =   100.;   INIMIX=   1;  MIXPRE=   1

 Intra band minimization:
   WEIMIN = 0.0000     energy-eigenvalue tresh-hold
   EBREAK =  0.31E-05  absolut break condition
   DEPER  =   0.30     relativ break condition

   TIME   =   0.40     timestep for ELM

  volume/ion in A,a.u.               =      20.01       135.05
  Fermi-wavevector in a.u.,A,eV,Ry     =   0.957176  1.808800 12.465458  0.916185
  Thomas-Fermi vector in A             =   2.086170

 Write flags
   LWAVE  =      T    write WAVECAR
   LCHARG =      T    write CHGCAR
   LVTOT  =      F    write LOCPOT, total local potential
   LVHAR  =      F    write LOCPOT, Hartree potential only
   LELF   =      F    write electronic localiz. function (ELF)
   LORBIT =     11    0 simple, 1 ext, 2 COOP (PROOUT)

 Dipole corrections
   LMONO  =      F    monopole corrections only (constant potential shift)
   LDIPOL =      F    correct potential (dipole corrections)
   IDIPOL =      0    1-x, 2-y, 3-z, 4-all directions
   EPSILON=  1.0000000 bulk dielectric constant

 Exchange correlation treatment:
   GGA     =    --    GGA type
   VOSKOWN=      0    Vosko Wilk Nusair interpolation
   LHFCALC =     F    Hartree Fock is set to
   LHFONE  =     F    Hartree Fock one center treatment
   AEXX    =    0.0000 exact exchange contribution

 Linear response parameters
   LEPSILON=     F    determine dielectric tensor
   LRPA    =     F    only Hartree local field effects (RPA)
   LNABLA  =     F    use nabla operator in PAW spheres
   LVEL    =     F    velocity operator in full k-point grid
   LINTERFAST=   F  fast interpolation
   KINTER  =     0    interpolate to denser k-point grid
   CSHIFT  =0.1000    complex shift for real part using Kramers Kronig
   OMEGAMAX=  -1.0    maximum frequency
   RTIME   =    0.100 relaxation time in fs

 Orbital magnetization related:
   ORBITALMAG=     F  switch on orbital magnetization
   LCHIMAG   =     F  perturbation theory with respect to B field
   DQ        =  0.001000  dq finite difference perturbation B field

 Static calculation
 charge density and potential remain constant during run
 non-spin polarized calculation
 Variant of blocked Davidson
 Davidson routine will perform the subspace rotation
 perform sub-space diagonalisation
    after iterative eigenvector-optimisation
 no mixing
 using additional bands            4
 reciprocal scheme for non local part
 use partial core corrections
 calculate Harris-corrections to forces
   (improved forces if not selfconsistent)
 use gradient corrections
 WARNING: stress and forces are not correct
  (second derivative of E(xc) not defined)
 use of overlap-Matrix (Vanderbilt PP)
 Gauss-broadening in eV      SIGMA  =   0.10

  energy-cutoff  :      240.00
  volume of cell :       40.03
      direct lattice vectors                 reciprocal lattice vectors
     2.715000000  2.715000000  0.000000000     0.184162063  0.184162063 -0.184162063
     0.000000000  2.715000000  2.715000000    -0.184162063  0.184162063  0.184162063
     2.715000000  0.000000000  2.715000000     0.184162063 -0.184162063  0.184162063

  length of vectors
     3.839589822  3.839589822  3.839589822     0.318978049  0.318978049  0.318978049

 old parameters found on file WAVECAR:
  energy-cutoff  :      240.00
  volume of cell :       40.03
      direct lattice vectors                 reciprocal lattice vectors
     2.715000000  2.715000000  0.000000000     0.184162063  0.184162063 -0.184162063
     0.000000000  2.715000000  2.715000000    -0.184162063  0.184162063  0.184162063
     2.715000000  0.000000000  2.715000000     0.184162063 -0.184162063  0.184162063

  length of vectors

 k-points in units of 2pi/SCALE and weight: k-points for bandstructure L-G-X-U K-G
   0.50000000  0.50000000  0.50000000       0.013
   0.47368421  0.47368421  0.47368421       0.013
   0.44736842  0.44736842  0.44736842       0.013
   0.42105263  0.42105263  0.42105263       0.013
   0.39473684  0.39473684  0.39473684       0.013
   0.36842105  0.36842105  0.36842105       0.013
   0.34210526  0.34210526  0.34210526       0.013
   0.31578947  0.31578947  0.31578947       0.013
   0.28947368  0.28947368  0.28947368       0.013
   0.26315789  0.26315789  0.26315789       0.013
   0.23684211  0.23684211  0.23684211       0.013
   0.21052632  0.21052632  0.21052632       0.013
   0.18421053  0.18421053  0.18421053       0.013
   0.15789474  0.15789474  0.15789474       0.013
   0.13157895  0.13157895  0.13157895       0.013
   0.10526316  0.10526316  0.10526316       0.013
   0.07894737  0.07894737  0.07894737       0.013
   0.05263158  0.05263158  0.05263158       0.013
   0.02631579  0.02631579  0.02631579       0.013
   0.00000000  0.00000000  0.00000000       0.013
   0.00000000  0.00000000  0.00000000       0.013
   0.00000000  0.00000000  0.05263158       0.013
   0.00000000  0.00000000  0.10526316       0.013
   0.00000000  0.00000000  0.15789474       0.013
   0.00000000  0.00000000  0.21052632       0.013
   0.00000000  0.00000000  0.26315789       0.013
   0.00000000  0.00000000  0.31578947       0.013
   0.00000000  0.00000000  0.36842105       0.013
   0.00000000  0.00000000  0.42105263       0.013
   0.00000000  0.00000000  0.47368421       0.013
   0.00000000  0.00000000  0.52631579       0.013
   0.00000000  0.00000000  0.57894737       0.013
   0.00000000  0.00000000  0.63157895       0.013
   0.00000000  0.00000000  0.68421053       0.013
   0.00000000  0.00000000  0.73684211       0.013
   0.00000000  0.00000000  0.78947368       0.013
   0.00000000  0.00000000  0.84210526       0.013
   0.00000000  0.00000000  0.89473684       0.013
   0.00000000  0.00000000  0.94736842       0.013
   0.00000000  0.00000000  1.00000000       0.013
[...]
   0.11842105  0.11842105  1.00000000       0.013
   0.13157895  0.13157895  1.00000000       0.013
   0.14473684  0.14473684  1.00000000       0.013
   0.15789474  0.15789474  1.00000000       0.013
   0.17105263  0.17105263  1.00000000       0.013
   0.18421053  0.18421053  1.00000000       0.013
   0.19736842  0.19736842  1.00000000       0.013
   0.21052632  0.21052632  1.00000000       0.013
   0.22368421  0.22368421  1.00000000       0.013
   0.23684211  0.23684211  1.00000000       0.013
   0.25000000  0.25000000  1.00000000       0.013
[...]
   0.00000000  0.55263158  0.55263158       0.013
   0.00000000  0.51315789  0.51315789       0.013
   0.00000000  0.47368421  0.47368421       0.013
   0.00000000  0.43421053  0.43421053       0.013
   0.00000000  0.39473684  0.39473684       0.013
   0.00000000  0.35526316  0.35526316       0.013
   0.00000000  0.31578947  0.31578947       0.013
   0.00000000  0.27631579  0.27631579       0.013
   0.00000000  0.23684211  0.23684211       0.013
   0.00000000  0.19736842  0.19736842       0.013
   0.00000000  0.15789474  0.15789474       0.013
   0.00000000  0.11842105  0.11842105       0.013
   0.00000000  0.07894737  0.07894737       0.013
   0.00000000  0.03947368  0.03947368       0.013
   0.00000000  0.00000000  0.00000000       0.013

 k-points in reciprocal lattice and weights: k-points for bandstructure L-G-X-U K-G
   0.50000000  0.50000000  0.50000000       0.013
   0.47368421  0.47368421  0.47368421       0.013
   0.44736842  0.44736842  0.44736842       0.013
   0.42105263  0.42105263  0.42105263       0.013
   0.39473684  0.39473684  0.39473684       0.013
   0.36842105  0.36842105  0.36842105       0.013
   0.34210526  0.34210526  0.34210526       0.013
   0.31578947  0.31578947  0.31578947       0.013
   0.28947368  0.28947368  0.28947368       0.013
   0.26315789  0.26315789  0.26315789       0.013
   0.23684211  0.23684211  0.23684211       0.013
   0.21052632  0.21052632  0.21052632       0.013
   0.18421053  0.18421053  0.18421053       0.013
   0.15789474  0.15789474  0.15789474       0.013
   0.13157895  0.13157895  0.13157895       0.013
   0.10526316  0.10526316  0.10526316       0.013
   0.07894737  0.07894737  0.07894737       0.013
   0.05263158  0.05263158  0.05263158       0.013
   0.02631579  0.02631579  0.02631579       0.013
   0.00000000  0.00000000  0.00000000       0.013
   0.00000000  0.00000000  0.00000000       0.013
   0.00000000  0.02631579  0.02631579       0.013
   0.00000000  0.05263158  0.05263158       0.013
   0.00000000  0.07894737  0.07894737       0.013
   0.00000000  0.10526316  0.10526316       0.013
   0.00000000  0.13157895  0.13157895       0.013
   0.00000000  0.15789474  0.15789474       0.013
   0.00000000  0.18421053  0.18421053       0.013
   0.00000000  0.21052632  0.21052632       0.013
   0.00000000  0.23684211  0.23684211       0.013
   0.00000000  0.26315789  0.26315789       0.013
   0.00000000  0.28947368  0.28947368       0.013
   0.00000000  0.31578947  0.31578947       0.013
   0.00000000  0.34210526  0.34210526       0.013
   0.00000000  0.36842105  0.36842105       0.013
   0.00000000  0.39473684  0.39473684       0.013
   0.00000000  0.42105263  0.42105263       0.013
   0.00000000  0.44736842  0.44736842       0.013
   0.00000000  0.47368421  0.47368421       0.013
   0.00000000  0.50000000  0.50000000       0.013
   0.00000000  0.50000000  0.50000000       0.013
   0.01315789  0.50657895  0.50657895       0.013
   0.02631579  0.51315789  0.51315789       0.013
   0.03947368  0.51973684  0.51973684       0.013
   0.05263158  0.52631579  0.52631579       0.013
   0.06578947  0.53289474  0.53289474       0.013
   0.07894737  0.53947368  0.53947368       0.013
   0.09210526  0.54605263  0.54605263       0.013
   0.10526316  0.55263158  0.55263158       0.013
   0.11842105  0.55921053  0.55921053       0.013
   0.13157895  0.56578947  0.56578947       0.013
   0.14473684  0.57236842  0.57236842       0.013
   0.15789474  0.57894737  0.57894737       0.013
   0.17105263  0.58552632  0.58552632       0.013
   0.18421053  0.59210526  0.59210526       0.013
   0.19736842  0.59868421  0.59868421       0.013
   0.21052632  0.60526316  0.60526316       0.013
   0.22368421  0.61184211  0.61184211       0.013
   0.23684211  0.61842105  0.61842105       0.013
   0.25000000  0.62500000  0.62500000       0.013
[...]
   0.27631579  0.55263158  0.27631579       0.013
   0.25657895  0.51315789  0.25657895       0.013
   0.23684211  0.47368421  0.23684211       0.013
   0.21710526  0.43421053  0.21710526       0.013
   0.19736842  0.39473684  0.19736842       0.013
   0.17763158  0.35526316  0.17763158       0.013
   0.15789474  0.31578947  0.15789474       0.013
   0.13815789  0.27631579  0.13815789       0.013
   0.11842105  0.23684211  0.11842105       0.013
   0.09868421  0.19736842  0.09868421       0.013
   0.07894737  0.15789474  0.07894737       0.013
   0.05921053  0.11842105  0.05921053       0.013
   0.03947368  0.07894737  0.03947368       0.013
   0.01973684  0.03947368  0.01973684       0.013
   0.00000000  0.00000000  0.00000000       0.013

 position of ions in fractional coordinates (direct lattice)
   0.00000000  0.00000000  0.00000000
   0.25000000  0.25000000  0.25000000

 position of ions in cartesian coordinates  (Angst):
   0.00000000  0.00000000  0.00000000
   1.35750000  1.35750000  1.35750000

 k-point  1 :  0.50000.50000.5000  plane waves:     344
 k-point  2 :  0.47370.47370.4737  plane waves:     341
 k-point  3 :  0.44740.44740.4474  plane waves:     338
 k-point  4 :  0.42110.42110.4211  plane waves:     338
 k-point  5 :  0.39470.39470.3947  plane waves:     344
 k-point  6 :  0.36840.36840.3684  plane waves:     338
 k-point  7 :  0.34210.34210.3421  plane waves:     344
 k-point  8 :  0.31580.31580.3158  plane waves:     344
 k-point  9 :  0.28950.28950.2895  plane waves:     338
 k-point 10 :  0.26320.26320.2632  plane waves:     338
 k-point 11 :  0.23680.23680.2368  plane waves:     338
 k-point 12 :  0.21050.21050.2105  plane waves:     332
 k-point 13 :  0.18420.18420.1842  plane waves:     329
 k-point 14 :  0.15790.15790.1579  plane waves:     332
 k-point 15 :  0.13160.13160.1316  plane waves:     335
 k-point 16 :  0.10530.10530.1053  plane waves:     332
 k-point 17 :  0.07890.07890.0789  plane waves:     332
 k-point 18 :  0.05260.05260.0526  plane waves:     332
 k-point 19 :  0.02630.02630.0263  plane waves:     331
 k-point 20 :  0.00000.00000.0000  plane waves:     331
 k-point 21 :  0.00000.00000.0000  plane waves:     331
 k-point 22 :  0.00000.02630.0263  plane waves:     331
 k-point 23 :  0.00000.05260.0526  plane waves:     331
 k-point 24 :  0.00000.07890.0789  plane waves:     335
 k-point 25 :  0.00000.10530.1053  plane waves:     335
 k-point 26 :  0.00000.13160.1316  plane waves:     331
 k-point 27 :  0.00000.15790.1579  plane waves:     335
 k-point 28 :  0.00000.18420.1842  plane waves:     335
 k-point 29 :  0.00000.21050.2105  plane waves:     339
 k-point 30 :  0.00000.23680.2368  plane waves:     343
 k-point 31 :  0.00000.26320.2632  plane waves:     343
 k-point 32 :  0.00000.28950.2895  plane waves:     339
 k-point 33 :  0.00000.31580.3158  plane waves:     331
 k-point 34 :  0.00000.34210.3421  plane waves:     327
 k-point 35 :  0.00000.36840.3684  plane waves:     327
 k-point 36 :  0.00000.39470.3947  plane waves:     327
 k-point 37 :  0.00000.42110.4211  plane waves:     335
 k-point 38 :  0.00000.44740.4474  plane waves:     334
 k-point 39 :  0.00000.47370.4737  plane waves:     342
 k-point 40 :  0.00000.50000.5000  plane waves:     342
 k-point 41 :  0.00000.50000.5000  plane waves:     342
 k-point 42 :  0.01320.50660.5066  plane waves:     342
 k-point 43 :  0.02630.51320.5132  plane waves:     342
 k-point 44 :  0.03950.51970.5197  plane waves:     342
 k-point 45 :  0.05260.52630.5263  plane waves:     342
 k-point 46 :  0.06580.53290.5329  plane waves:     342
 k-point 47 :  0.07890.53950.5395  plane waves:     342
 k-point 48 :  0.09210.54610.5461  plane waves:     342
 k-point 49 :  0.10530.55260.5526  plane waves:     342
 k-point 50 :  0.11840.55920.5592  plane waves:     342
 k-point 51 :  0.13160.56580.5658  plane waves:     342
 k-point 52 :  0.14470.57240.5724  plane waves:     342
 k-point 53 :  0.15790.57890.5789  plane waves:     343
 k-point 54 :  0.17110.58550.5855  plane waves:     335
 k-point 55 :  0.18420.59210.5921  plane waves:     335
 k-point 56 :  0.19740.59870.5987  plane waves:     341
 k-point 57 :  0.21050.60530.6053  plane waves:     341
 k-point 58 :  0.22370.61180.6118  plane waves:     341
 k-point 59 :  0.23680.61840.6184  plane waves:     337
 k-point 60 :  0.25000.62500.6250  plane waves:     337
[...]
 k-point 66 :  0.27630.55260.2763  plane waves:     335
 k-point 67 :  0.25660.51320.2566  plane waves:     339
 k-point 68 :  0.23680.47370.2368  plane waves:     339
 k-point 69 :  0.21710.43420.2171  plane waves:     331
 k-point 70 :  0.19740.39470.1974  plane waves:     333
 k-point 71 :  0.17760.35530.1776  plane waves:     333
 k-point 72 :  0.15790.31580.1579  plane waves:     333
 k-point 73 :  0.13820.27630.1382  plane waves:     333
 k-point 74 :  0.11840.23680.1184  plane waves:     331
 k-point 75 :  0.09870.19740.0987  plane waves:     329
 k-point 76 :  0.07890.15790.0789  plane waves:     333
 k-point 77 :  0.05920.11840.0592  plane waves:     333
 k-point 78 :  0.03950.07890.0395  plane waves:     333
 k-point 79 :  0.01970.03950.0197  plane waves:     331
 k-point 80 :  0.00000.00000.0000  plane waves:     331

 maximum and minimum number of plane-waves per node :       347      327

 maximum number of plane-waves:       347
 maximum index in each direction:
   IXMAX=    4   IYMAX=    4   IZMAX=    4
   IXMIN=   -5   IYMIN=   -5   IZMIN=   -5

 WARNING: aliasing errors must be expected set NGX to  20 to avoid them
 WARNING: aliasing errors must be expected set NGY to  20 to avoid them
 WARNING: aliasing errors must be expected set NGZ to  20 to avoid them
 aliasing errors are usually negligible using standard VASP settings
 and one can safely disregard these warnings

 serial   3D FFT for wavefunctions
 parallel 3D FFT for charge:
    minimum data exchange during FFTs selected (reduces bandwidth)

 initial charge density was supplied:
 number of electron       7.9999994 magnetization
 keeping initial charge density in first step

 Maximum index for augmentation-charges          847 (set IRDMAX)

 First call to EWALD:  gamma=   0.518
 Maximum number of real-space cells 3x 3x 3
 Maximum number of reciprocal cells 3x 3x 3

----------------------------------------- Iteration    1(   1)  ---------------------------------------

 eigenvalue-minimisations  :  1696
 total energy-change (2. order) :-0.6631830E+01  (-0.2717929E+02)
 number of electron       7.9999994 magnetization
 augmentation part        7.9999994 magnetization

 Free energy of the ion-electron system (eV)
  alpha Z        PSCENC =         3.36414726
  Ewald energy   TEWEN  =      -228.56352493
  -1/2 Hartree   DENC   =       -14.90601773
  -exchange  EXHF       =         0.00000000
  -V(xc)+E(xc)   XCENC  =       -17.95344313
  PAW double counting   =      1032.75528638     -997.79993535
  entropy T*S    EENTRO =        -0.00444085
  eigenvalues    EBANDS =        10.35454481
  atomic energy  EATOM  =       206.12155316
  free energy    TOTEN  =        -6.63183038 eV

  energy without entropy =       -6.62738952  energy(sigma->0) =       -6.62960995

 E-fermi :   6.4346     XC(G=0):  -9.4119     alpha+bet :-11.9845

 k-point   1 :       0.5000    0.5000    0.5000
  band No.  band energies     occupation
      1      -3.7980      2.00000
      2      -1.1374      2.00000
      3       4.6381      2.00000
      4       4.6381      2.00000
      5       7.3840      0.00000
      6       9.1950      0.00000
      7       9.1950      0.00000
      8      13.5683      0.00000

[...]

----------------------------------------- Iteration    1(   4)  ---------------------------------------

 eigenvalue-minimisations  :  1568
 total energy-change (2. order) :-0.1868325E-05  (-0.1867563E-05)
 number of electron       7.9999994 magnetization
 augmentation part        7.9999994 magnetization

 Free energy of the ion-electron system (eV)
  alpha Z        PSCENC =         3.36414726
  Ewald energy   TEWEN  =      -228.56352493
  -1/2 Hartree   DENC   =       -14.90601773
  -exchange  EXHF       =         0.00000000
  -V(xc)+E(xc)   XCENC  =       -17.95344313
  PAW double counting   =      1032.75528638     -997.79993535
  entropy T*S    EENTRO =        -0.00000154
  eigenvalues    EBANDS =        10.10138437
  atomic energy  EATOM  =       206.12155316
  free energy    TOTEN  =        -6.88055150 eV

  energy without entropy =       -6.88054996  energy(sigma->0) =       -6.88055073

 average (electrostatic) potential at core
  the test charge radii are     0.9892
  (the norm of the test charge is              1.0000)
       1 -83.2484       2 -83.2484

 E-fermi :   6.1459     XC(G=0):  -9.4119     alpha+bet :-11.9845

[...]

 k-point  80 :       0.0000    0.0000    0.0000
  band No.  band energies     occupation
      1      -6.1307      2.00000
      2       5.8432      1.99998
      3       5.8432      1.99998
      4       5.8432      1.99998
      5       8.4095      0.00000
      6       8.4095      0.00000
      7       8.4095      0.00000
      8       9.2079      0.00000

 soft charge-density along one line, spin component           1
         0         1         2         3         4         5         6         7         8         9
 total charge-density along one line

------------------------ aborting loop because EDIFF is reached ----------------------------------------

 total charge

# of ion     s       p       d       tot
  1        0.682   1.059   0.000   1.740
  2        0.682   1.059   0.000   1.740
tot        1.363   2.118   0.000   3.481

  FORCE on cell =-STRESS in cart. coord.  units (eV):
  Direction    XX          YY          ZZ          XY          YZ          ZX
  Alpha Z     3.36415     3.36415     3.36415
  Ewald     -76.18788   -76.18788   -76.18788     0.00000     0.00000     0.00000
  Hartree     5.82349     5.82349     5.82349     0.00000     0.00000     0.00000
  E(xc)     -25.47260   -25.47260   -25.47260     0.00001     0.00001     0.00001
  Local     -31.19122   -31.19122   -31.19122     0.00005     0.00005     0.00005
  n-local    78.05651    79.13451    74.03794    -1.28573    -1.89822    -0.84274
  augment   -11.00328   -11.00328   -11.00328    -0.00004    -0.00004    -0.00004
  Kinetic    63.31250    64.01491    58.78718    -1.75987    -1.31684    -0.93738
  Fock        0.00000     0.00000     0.00000     0.00000     0.00000     0.00000
  Total       4.44718     4.44718     4.44718     0.00000     0.00000     0.00000
  in kB     178.01450   178.01450   178.01450     0.00000     0.00000     0.00000

 VOLUME and BASIS-vectors are now :
  energy-cutoff  :      240.00
  volume of cell :       40.03
      direct lattice vectors                 reciprocal lattice vectors
     2.715000000  2.715000000  0.000000000     0.184162063  0.184162063 -0.184162063
     0.000000000  2.715000000  2.715000000    -0.184162063  0.184162063  0.184162063
     2.715000000  0.000000000  2.715000000     0.184162063 -0.184162063  0.184162063

  length of vectors
     3.839589822  3.839589822  3.839589822     0.318978049  0.318978049  0.318978049

 FORCES acting on ions
    electron-ion (+dipol)            ewald-force                    non-local-force                 convergence-correction
   0.343E-05 0.386E-05 0.343E-05   0.158E-14 -.131E-14 -.117E-14   -.139E-16 -.572E-16 0.330E-16   0.151E-06 0.155E-06 0.151E-06
   -.343E-05 -.386E-05 -.343E-05   -.171E-14 0.105E-14 0.135E-14   0.538E-16 0.486E-16 -.520E-17   -.151E-06 -.155E-06 -.151E-06
   0.174E-13 0.197E-13 0.170E-13   -.134E-15 -.256E-15 0.186E-15   0.399E-16 -.867E-17 0.278E-16   0.147E-14 -.307E-15 0.147E-14

 POSITION                                       TOTAL-FORCE (eV/Angst)
      0.00000      0.00000      0.00000         0.000000      0.000000      0.000000
      1.35750      1.35750      1.35750         0.000000      0.000000      0.000000
    total drift:                                0.000000      0.000000      0.000000

  FREE ENERGIE OF THE ION-ELECTRON SYSTEM (eV)
  free  energy   TOTEN  =        -6.880551 eV

  energy  without entropy=       -6.880550  energy(sigma->0) =       -6.880551

 writing wavefunctions

 total charge

# of ion     s       p       d       tot
  1        0.682   1.059   0.000   1.740
  2        0.682   1.059   0.000   1.740
tot        1.363   2.118   0.000   3.481